1129723
79,17,94,29,12,24,54,28,46,27,2,64,5,3,85,89,8,35,97,42,36,68,32,9,33,57,47,95,66,4,86,39,84,92,52,43,65,22,73,7,14,81,45,87,38,1,37,48,74,70,13,63,49,62,56,10,75,69,60,31,93,30,96,21,20,77,18,41,6,53,91,44,55,72,88,50,80,99,76,83,15,16,58,61,82,67,98,23,11,34,71,90,59,19,26,40,78,25,51